old_csp/model.lp
\Problem name: 

Minimize
obj:
Subject To
cons0:  x36 + x37 + x38 + x39 + x40 + x41 = 0
cons1:  x0 + x1 + x2 + x3 + x4 + x5 = 2
cons2:  x42 + x43 + x44 + x45 + x46 + x47 = 0
cons3:  x6 + x7 + x8 + x9 + x10 + x11 = 2
cons4:  x48 + x49 + x50 + x51 + x52 + x53 = 1
cons5:  x12 + x13 + x14 + x15 + x16 + x17 = 1
cons6:  x54 + x55 + x56 + x57 + x58 + x59 = 1
cons7:  x18 + x19 + x20 + x21 + x22 + x23 = 1
cons8:  x60 + x61 + x62 + x63 + x64 + x65 = 2
cons9:  x24 + x25 + x26 + x27 + x28 + x29 = 0
cons10:  x66 + x67 + x68 + x69 + x70 + x71 = 2
cons11:  x30 + x31 + x32 + x33 + x34 + x35 = 0
cons12:  x36 + x42 + x48 + x54 + x60 + x66 = 1
cons13:  x0 + x6 + x12 + x18 + x24 + x30 = 1
cons14:  x37 + x43 + x49 + x55 + x61 + x67 = 1
cons15:  x1 + x7 + x13 + x19 + x25 + x31 = 1
cons16:  x38 + x44 + x50 + x56 + x62 + x68 = 1
cons17:  x2 + x8 + x14 + x20 + x26 + x32 = 1
cons18:  x39 + x45 + x51 + x57 + x63 + x69 = 1
cons19:  x3 + x9 + x15 + x21 + x27 + x33 = 1
cons20:  x40 + x46 + x52 + x58 + x64 + x70 = 1
cons21:  x4 + x10 + x16 + x22 + x28 + x34 = 1
cons22:  x41 + x47 + x53 + x59 + x65 + x71 = 1
cons23:  x5 + x11 + x17 + x23 + x29 + x35 = 1
cons24:  x0 + x36 <= 1
cons25:  x0 + x1 + x36 + x37 <= 1
cons26:  x0 + x1 + x36 + x37 <= 1
cons27:  x1 + x37 <= 1
cons28:  x2 + x38 <= 1
cons29:  x2 + x3 + x38 + x39 <= 1
cons30:  x2 + x3 + x38 + x39 <= 1
cons31:  x3 + x39 <= 1
cons32:  x4 + x40 <= 1
cons33:  x4 + x5 + x40 + x41 <= 1
cons34:  x4 + x5 + x40 + x41 <= 1
cons35:  x5 + x41 <= 1
cons36:  x6 + x42 <= 1
cons37:  x6 + x7 + x42 + x43 <= 1
cons38:  x6 + x7 + x42 + x43 <= 1
cons39:  x7 + x43 <= 1
cons40:  x8 + x44 <= 1
cons41:  x8 + x9 + x44 + x45 <= 1
cons42:  x8 + x9 + x44 + x45 <= 1
cons43:  x9 + x45 <= 1
cons44:  x10 + x46 <= 1
cons45:  x10 + x11 + x46 + x47 <= 1
cons46:  x10 + x11 + x46 + x47 <= 1
cons47:  x11 + x47 <= 1
cons48:  x12 + x48 <= 1
cons49:  x12 + x13 + x48 + x49 <= 1
cons50:  x12 + x13 + x48 + x49 <= 1
cons51:  x13 + x49 <= 1
cons52:  x14 + x50 <= 1
cons53:  x14 + x15 + x50 + x51 <= 1
cons54:  x14 + x15 + x50 + x51 <= 1
cons55:  x15 + x51 <= 1
cons56:  x16 + x52 <= 1
cons57:  x16 + x17 + x52 + x53 <= 1
cons58:  x16 + x17 + x52 + x53 <= 1
cons59:  x17 + x53 <= 1
cons60:  x18 + x54 <= 1
cons61:  x18 + x19 + x54 + x55 <= 1
cons62:  x18 + x19 + x54 + x55 <= 1
cons63:  x19 + x55 <= 1
cons64:  x20 + x56 <= 1
cons65:  x20 + x21 + x56 + x57 <= 1
cons66:  x20 + x21 + x56 + x57 <= 1
cons67:  x21 + x57 <= 1
cons68:  x22 + x58 <= 1
cons69:  x22 + x23 + x58 + x59 <= 1
cons70:  x22 + x23 + x58 + x59 <= 1
cons71:  x23 + x59 <= 1
cons72:  x24 + x60 <= 1
cons73:  x24 + x25 + x60 + x61 <= 1
cons74:  x24 + x25 + x60 + x61 <= 1
cons75:  x25 + x61 <= 1
cons76:  x26 + x62 <= 1
cons77:  x26 + x27 + x62 + x63 <= 1
cons78:  x26 + x27 + x62 + x63 <= 1
cons79:  x27 + x63 <= 1
cons80:  x28 + x64 <= 1
cons81:  x28 + x29 + x64 + x65 <= 1
cons82:  x28 + x29 + x64 + x65 <= 1
cons83:  x29 + x65 <= 1
cons84:  x30 + x66 <= 1
cons85:  x30 + x31 + x66 + x67 <= 1
cons86:  x30 + x31 + x66 + x67 <= 1
cons87:  x31 + x67 <= 1
cons88:  x32 + x68 <= 1
cons89:  x32 + x33 + x68 + x69 <= 1
cons90:  x32 + x33 + x68 + x69 <= 1
cons91:  x33 + x69 <= 1
cons92:  x34 + x70 <= 1
cons93:  x34 + x35 + x70 + x71 <= 1
cons94:  x34 + x35 + x70 + x71 <= 1
cons95:  x35 + x71 <= 1
Bounds
 0 <= x0 <= 1
 0 <= x1 <= 1
 0 <= x2 <= 1
 0 <= x3 <= 1
 0 <= x4 <= 1
 0 <= x5 <= 1
 0 <= x6 <= 1
 0 <= x7 <= 1
 0 <= x8 <= 1
 0 <= x9 <= 1
 0 <= x10 <= 1
 0 <= x11 <= 1
 0 <= x12 <= 1
 0 <= x13 <= 1
 0 <= x14 <= 1
 0 <= x15 <= 1
 0 <= x16 <= 1
 0 <= x17 <= 1
 0 <= x18 <= 1
 0 <= x19 <= 1
 0 <= x20 <= 1
 0 <= x21 <= 1
 0 <= x22 <= 1
 0 <= x23 <= 1
 0 <= x24 <= 1
 0 <= x25 <= 1
 0 <= x26 <= 1
 0 <= x27 <= 1
 0 <= x28 <= 1
 0 <= x29 <= 1
 0 <= x30 <= 1
 0 <= x31 <= 1
 0 <= x32 <= 1
 0 <= x33 <= 1
 0 <= x34 <= 1
 0 <= x35 <= 1
 0 <= x36 <= 1
 0 <= x37 <= 1
 0 <= x38 <= 1
 0 <= x39 <= 1
 0 <= x40 <= 1
 0 <= x41 <= 1
 0 <= x42 <= 1
 0 <= x43 <= 1
 0 <= x44 <= 1
 0 <= x45 <= 1
 0 <= x46 <= 1
 0 <= x47 <= 1
 0 <= x48 <= 1
 0 <= x49 <= 1
 0 <= x50 <= 1
 0 <= x51 <= 1
 0 <= x52 <= 1
 0 <= x53 <= 1
 0 <= x54 <= 1
 0 <= x55 <= 1
 0 <= x56 <= 1
 0 <= x57 <= 1
 0 <= x58 <= 1
 0 <= x59 <= 1
 0 <= x60 <= 1
 0 <= x61 <= 1
 0 <= x62 <= 1
 0 <= x63 <= 1
 0 <= x64 <= 1
 0 <= x65 <= 1
 0 <= x66 <= 1
 0 <= x67 <= 1
 0 <= x68 <= 1
 0 <= x69 <= 1
 0 <= x70 <= 1
 0 <= x71 <= 1
Integers
x0 x1 x2 x3 x4 x5 x6 x7 x8 x9 
x10 x11 x12 x13 x14 x15 x16 x17 x18 x19 
x20 x21 x22 x23 x24 x25 x26 x27 x28 x29 
x30 x31 x32 x33 x34 x35 x36 x37 x38 x39 
x40 x41 x42 x43 x44 x45 x46 x47 x48 x49 
x50 x51 x52 x53 x54 x55 x56 x57 x58 x59 
x60 x61 x62 x63 x64 x65 x66 x67 x68 x69 
x70 x71 
End
