old_csp/model.mps.mps
NAME          BLANK     FREE
ROWS
 N  OBJROW
 E  at_max_alloc(0)
 E  tt_max_alloc(0)
 E  at_max_alloc(1)
 E  tt_max_alloc(1)
 E  at_max_alloc(2)
 E  tt_max_alloc(2)
 E  at_max_alloc(3)
 E  tt_max_alloc(3)
 E  at_max_alloc(4)
 E  tt_max_alloc(4)
 E  at_max_alloc(5)
 E  tt_max_alloc(5)
 E  at_class_max_alloc(0)
 E  tt_class_max_alloc(0)
 E  at_class_max_alloc(1)
 E  tt_class_max_alloc(1)
 E  at_class_max_alloc(2)
 E  tt_class_max_alloc(2)
 E  at_class_max_alloc(3)
 E  tt_class_max_alloc(3)
 E  at_class_max_alloc(4)
 E  tt_class_max_alloc(4)
 E  at_class_max_alloc(5)
 E  tt_class_max_alloc(5)
 L  at_tt_not_possible(0, 0)
 L  at_tt_not_possible(0, 0)
 L  at_tt_not_possible(0, 1)
 L  at_tt_not_possible(0, 1)
 L  at_tt_not_possible(0, 2)
 L  at_tt_not_possible(0, 2)
 L  at_tt_not_possible(0, 3)
 L  at_tt_not_possible(0, 3)
 L  at_tt_not_possible(0, 4)
 L  at_tt_not_possible(0, 4)
 L  at_tt_not_possible(0, 5)
 L  at_tt_not_possible(0, 5)
 L  at_tt_not_possible(1, 0)
 L  at_tt_not_possible(1, 0)
 L  at_tt_not_possible(1, 1)
 L  at_tt_not_possible(1, 1)
 L  at_tt_not_possible(1, 2)
 L  at_tt_not_possible(1, 2)
 L  at_tt_not_possible(1, 3)
 L  at_tt_not_possible(1, 3)
 L  at_tt_not_possible(1, 4)
 L  at_tt_not_possible(1, 4)
 L  at_tt_not_possible(1, 5)
 L  at_tt_not_possible(1, 5)
 L  at_tt_not_possible(2, 0)
 L  at_tt_not_possible(2, 0)
 L  at_tt_not_possible(2, 1)
 L  at_tt_not_possible(2, 1)
 L  at_tt_not_possible(2, 2)
 L  at_tt_not_possible(2, 2)
 L  at_tt_not_possible(2, 3)
 L  at_tt_not_possible(2, 3)
 L  at_tt_not_possible(2, 4)
 L  at_tt_not_possible(2, 4)
 L  at_tt_not_possible(2, 5)
 L  at_tt_not_possible(2, 5)
 L  at_tt_not_possible(3, 0)
 L  at_tt_not_possible(3, 0)
 L  at_tt_not_possible(3, 1)
 L  at_tt_not_possible(3, 1)
 L  at_tt_not_possible(3, 2)
 L  at_tt_not_possible(3, 2)
 L  at_tt_not_possible(3, 3)
 L  at_tt_not_possible(3, 3)
 L  at_tt_not_possible(3, 4)
 L  at_tt_not_possible(3, 4)
 L  at_tt_not_possible(3, 5)
 L  at_tt_not_possible(3, 5)
 L  at_tt_not_possible(4, 0)
 L  at_tt_not_possible(4, 0)
 L  at_tt_not_possible(4, 1)
 L  at_tt_not_possible(4, 1)
 L  at_tt_not_possible(4, 2)
 L  at_tt_not_possible(4, 2)
 L  at_tt_not_possible(4, 3)
 L  at_tt_not_possible(4, 3)
 L  at_tt_not_possible(4, 4)
 L  at_tt_not_possible(4, 4)
 L  at_tt_not_possible(4, 5)
 L  at_tt_not_possible(4, 5)
 L  at_tt_not_possible(5, 0)
 L  at_tt_not_possible(5, 0)
 L  at_tt_not_possible(5, 1)
 L  at_tt_not_possible(5, 1)
 L  at_tt_not_possible(5, 2)
 L  at_tt_not_possible(5, 2)
 L  at_tt_not_possible(5, 3)
 L  at_tt_not_possible(5, 3)
 L  at_tt_not_possible(5, 4)
 L  at_tt_not_possible(5, 4)
 L  at_tt_not_possible(5, 5)
 L  at_tt_not_possible(5, 5)
COLUMNS
    t(0, 0) tt_max_alloc(0) 1.           tt_class_max_alloc(0) 1.          
    t(0, 0) at_tt_not_possible(0, 0) 1.           at_tt_not_possible(0, 0) 1.          
    t(0, 0) at_tt_not_possible(0, 1) 1.          
    t(0, 1) tt_max_alloc(0) 1.           tt_class_max_alloc(1) 1.          
    t(0, 1) at_tt_not_possible(0, 0) 1.           at_tt_not_possible(0, 1) 1.          
    t(0, 1) at_tt_not_possible(0, 1) 1.          
    t(0, 2) tt_max_alloc(0) 1.           tt_class_max_alloc(2) 1.          
    t(0, 2) at_tt_not_possible(0, 2) 1.           at_tt_not_possible(0, 2) 1.          
    t(0, 2) at_tt_not_possible(0, 3) 1.          
    t(0, 3) tt_max_alloc(0) 1.           tt_class_max_alloc(3) 1.          
    t(0, 3) at_tt_not_possible(0, 2) 1.           at_tt_not_possible(0, 3) 1.          
    t(0, 3) at_tt_not_possible(0, 3) 1.          
    t(0, 4) tt_max_alloc(0) 1.           tt_class_max_alloc(4) 1.          
    t(0, 4) at_tt_not_possible(0, 4) 1.           at_tt_not_possible(0, 4) 1.          
    t(0, 4) at_tt_not_possible(0, 5) 1.          
    t(0, 5) tt_max_alloc(0) 1.           tt_class_max_alloc(5) 1.          
    t(0, 5) at_tt_not_possible(0, 4) 1.           at_tt_not_possible(0, 5) 1.          
    t(0, 5) at_tt_not_possible(0, 5) 1.          
    t(1, 0) tt_max_alloc(1) 1.           tt_class_max_alloc(0) 1.          
    t(1, 0) at_tt_not_possible(1, 0) 1.           at_tt_not_possible(1, 0) 1.          
    t(1, 0) at_tt_not_possible(1, 1) 1.          
    t(1, 1) tt_max_alloc(1) 1.           tt_class_max_alloc(1) 1.          
    t(1, 1) at_tt_not_possible(1, 0) 1.           at_tt_not_possible(1, 1) 1.          
    t(1, 1) at_tt_not_possible(1, 1) 1.          
    t(1, 2) tt_max_alloc(1) 1.           tt_class_max_alloc(2) 1.          
    t(1, 2) at_tt_not_possible(1, 2) 1.           at_tt_not_possible(1, 2) 1.          
    t(1, 2) at_tt_not_possible(1, 3) 1.          
    t(1, 3) tt_max_alloc(1) 1.           tt_class_max_alloc(3) 1.          
    t(1, 3) at_tt_not_possible(1, 2) 1.           at_tt_not_possible(1, 3) 1.          
    t(1, 3) at_tt_not_possible(1, 3) 1.          
    t(1, 4) tt_max_alloc(1) 1.           tt_class_max_alloc(4) 1.          
    t(1, 4) at_tt_not_possible(1, 4) 1.           at_tt_not_possible(1, 4) 1.          
    t(1, 4) at_tt_not_possible(1, 5) 1.          
    t(1, 5) tt_max_alloc(1) 1.           tt_class_max_alloc(5) 1.          
    t(1, 5) at_tt_not_possible(1, 4) 1.           at_tt_not_possible(1, 5) 1.          
    t(1, 5) at_tt_not_possible(1, 5) 1.          
    t(2, 0) tt_max_alloc(2) 1.           tt_class_max_alloc(0) 1.          
    t(2, 0) at_tt_not_possible(2, 0) 1.           at_tt_not_possible(2, 0) 1.          
    t(2, 0) at_tt_not_possible(2, 1) 1.          
    t(2, 1) tt_max_alloc(2) 1.           tt_class_max_alloc(1) 1.          
    t(2, 1) at_tt_not_possible(2, 0) 1.           at_tt_not_possible(2, 1) 1.          
    t(2, 1) at_tt_not_possible(2, 1) 1.          
    t(2, 2) tt_max_alloc(2) 1.           tt_class_max_alloc(2) 1.          
    t(2, 2) at_tt_not_possible(2, 2) 1.           at_tt_not_possible(2, 2) 1.          
    t(2, 2) at_tt_not_possible(2, 3) 1.          
    t(2, 3) tt_max_alloc(2) 1.           tt_class_max_alloc(3) 1.          
    t(2, 3) at_tt_not_possible(2, 2) 1.           at_tt_not_possible(2, 3) 1.          
    t(2, 3) at_tt_not_possible(2, 3) 1.          
    t(2, 4) tt_max_alloc(2) 1.           tt_class_max_alloc(4) 1.          
    t(2, 4) at_tt_not_possible(2, 4) 1.           at_tt_not_possible(2, 4) 1.          
    t(2, 4) at_tt_not_possible(2, 5) 1.          
    t(2, 5) tt_max_alloc(2) 1.           tt_class_max_alloc(5) 1.          
    t(2, 5) at_tt_not_possible(2, 4) 1.           at_tt_not_possible(2, 5) 1.          
    t(2, 5) at_tt_not_possible(2, 5) 1.          
    t(3, 0) tt_max_alloc(3) 1.           tt_class_max_alloc(0) 1.          
    t(3, 0) at_tt_not_possible(3, 0) 1.           at_tt_not_possible(3, 0) 1.          
    t(3, 0) at_tt_not_possible(3, 1) 1.          
    t(3, 1) tt_max_alloc(3) 1.           tt_class_max_alloc(1) 1.          
    t(3, 1) at_tt_not_possible(3, 0) 1.           at_tt_not_possible(3, 1) 1.          
    t(3, 1) at_tt_not_possible(3, 1) 1.          
    t(3, 2) tt_max_alloc(3) 1.           tt_class_max_alloc(2) 1.          
    t(3, 2) at_tt_not_possible(3, 2) 1.           at_tt_not_possible(3, 2) 1.          
    t(3, 2) at_tt_not_possible(3, 3) 1.          
    t(3, 3) tt_max_alloc(3) 1.           tt_class_max_alloc(3) 1.          
    t(3, 3) at_tt_not_possible(3, 2) 1.           at_tt_not_possible(3, 3) 1.          
    t(3, 3) at_tt_not_possible(3, 3) 1.          
    t(3, 4) tt_max_alloc(3) 1.           tt_class_max_alloc(4) 1.          
    t(3, 4) at_tt_not_possible(3, 4) 1.           at_tt_not_possible(3, 4) 1.          
    t(3, 4) at_tt_not_possible(3, 5) 1.          
    t(3, 5) tt_max_alloc(3) 1.           tt_class_max_alloc(5) 1.          
    t(3, 5) at_tt_not_possible(3, 4) 1.           at_tt_not_possible(3, 5) 1.          
    t(3, 5) at_tt_not_possible(3, 5) 1.          
    t(4, 0) tt_max_alloc(4) 1.           tt_class_max_alloc(0) 1.          
    t(4, 0) at_tt_not_possible(4, 0) 1.           at_tt_not_possible(4, 0) 1.          
    t(4, 0) at_tt_not_possible(4, 1) 1.          
    t(4, 1) tt_max_alloc(4) 1.           tt_class_max_alloc(1) 1.          
    t(4, 1) at_tt_not_possible(4, 0) 1.           at_tt_not_possible(4, 1) 1.          
    t(4, 1) at_tt_not_possible(4, 1) 1.          
    t(4, 2) tt_max_alloc(4) 1.           tt_class_max_alloc(2) 1.          
    t(4, 2) at_tt_not_possible(4, 2) 1.           at_tt_not_possible(4, 2) 1.          
    t(4, 2) at_tt_not_possible(4, 3) 1.          
    t(4, 3) tt_max_alloc(4) 1.           tt_class_max_alloc(3) 1.          
    t(4, 3) at_tt_not_possible(4, 2) 1.           at_tt_not_possible(4, 3) 1.          
    t(4, 3) at_tt_not_possible(4, 3) 1.          
    t(4, 4) tt_max_alloc(4) 1.           tt_class_max_alloc(4) 1.          
    t(4, 4) at_tt_not_possible(4, 4) 1.           at_tt_not_possible(4, 4) 1.          
    t(4, 4) at_tt_not_possible(4, 5) 1.          
    t(4, 5) tt_max_alloc(4) 1.           tt_class_max_alloc(5) 1.          
    t(4, 5) at_tt_not_possible(4, 4) 1.           at_tt_not_possible(4, 5) 1.          
    t(4, 5) at_tt_not_possible(4, 5) 1.          
    t(5, 0) tt_max_alloc(5) 1.           tt_class_max_alloc(0) 1.          
    t(5, 0) at_tt_not_possible(5, 0) 1.           at_tt_not_possible(5, 0) 1.          
    t(5, 0) at_tt_not_possible(5, 1) 1.          
    t(5, 1) tt_max_alloc(5) 1.           tt_class_max_alloc(1) 1.          
    t(5, 1) at_tt_not_possible(5, 0) 1.           at_tt_not_possible(5, 1) 1.          
    t(5, 1) at_tt_not_possible(5, 1) 1.          
    t(5, 2) tt_max_alloc(5) 1.           tt_class_max_alloc(2) 1.          
    t(5, 2) at_tt_not_possible(5, 2) 1.           at_tt_not_possible(5, 2) 1.          
    t(5, 2) at_tt_not_possible(5, 3) 1.          
    t(5, 3) tt_max_alloc(5) 1.           tt_class_max_alloc(3) 1.          
    t(5, 3) at_tt_not_possible(5, 2) 1.           at_tt_not_possible(5, 3) 1.          
    t(5, 3) at_tt_not_possible(5, 3) 1.          
    t(5, 4) tt_max_alloc(5) 1.           tt_class_max_alloc(4) 1.          
    t(5, 4) at_tt_not_possible(5, 4) 1.           at_tt_not_possible(5, 4) 1.          
    t(5, 4) at_tt_not_possible(5, 5) 1.          
    t(5, 5) tt_max_alloc(5) 1.           tt_class_max_alloc(5) 1.          
    t(5, 5) at_tt_not_possible(5, 4) 1.           at_tt_not_possible(5, 5) 1.          
    t(5, 5) at_tt_not_possible(5, 5) 1.          
    at(0, 0) at_max_alloc(0) 1.           at_class_max_alloc(0) 1.          
    at(0, 0) at_tt_not_possible(0, 0) 1.           at_tt_not_possible(0, 0) 1.          
    at(0, 0) at_tt_not_possible(0, 1) 1.          
    at(0, 1) at_max_alloc(0) 1.           at_class_max_alloc(1) 1.          
    at(0, 1) at_tt_not_possible(0, 0) 1.           at_tt_not_possible(0, 1) 1.          
    at(0, 1) at_tt_not_possible(0, 1) 1.          
    at(0, 2) at_max_alloc(0) 1.           at_class_max_alloc(2) 1.          
    at(0, 2) at_tt_not_possible(0, 2) 1.           at_tt_not_possible(0, 2) 1.          
    at(0, 2) at_tt_not_possible(0, 3) 1.          
    at(0, 3) at_max_alloc(0) 1.           at_class_max_alloc(3) 1.          
    at(0, 3) at_tt_not_possible(0, 2) 1.           at_tt_not_possible(0, 3) 1.          
    at(0, 3) at_tt_not_possible(0, 3) 1.          
    at(0, 4) at_max_alloc(0) 1.           at_class_max_alloc(4) 1.          
    at(0, 4) at_tt_not_possible(0, 4) 1.           at_tt_not_possible(0, 4) 1.          
    at(0, 4) at_tt_not_possible(0, 5) 1.          
    at(0, 5) at_max_alloc(0) 1.           at_class_max_alloc(5) 1.          
    at(0, 5) at_tt_not_possible(0, 4) 1.           at_tt_not_possible(0, 5) 1.          
    at(0, 5) at_tt_not_possible(0, 5) 1.          
    at(1, 0) at_max_alloc(1) 1.           at_class_max_alloc(0) 1.          
    at(1, 0) at_tt_not_possible(1, 0) 1.           at_tt_not_possible(1, 0) 1.          
    at(1, 0) at_tt_not_possible(1, 1) 1.          
    at(1, 1) at_max_alloc(1) 1.           at_class_max_alloc(1) 1.          
    at(1, 1) at_tt_not_possible(1, 0) 1.           at_tt_not_possible(1, 1) 1.          
    at(1, 1) at_tt_not_possible(1, 1) 1.          
    at(1, 2) at_max_alloc(1) 1.           at_class_max_alloc(2) 1.          
    at(1, 2) at_tt_not_possible(1, 2) 1.           at_tt_not_possible(1, 2) 1.          
    at(1, 2) at_tt_not_possible(1, 3) 1.          
    at(1, 3) at_max_alloc(1) 1.           at_class_max_alloc(3) 1.          
    at(1, 3) at_tt_not_possible(1, 2) 1.           at_tt_not_possible(1, 3) 1.          
    at(1, 3) at_tt_not_possible(1, 3) 1.          
    at(1, 4) at_max_alloc(1) 1.           at_class_max_alloc(4) 1.          
    at(1, 4) at_tt_not_possible(1, 4) 1.           at_tt_not_possible(1, 4) 1.          
    at(1, 4) at_tt_not_possible(1, 5) 1.          
    at(1, 5) at_max_alloc(1) 1.           at_class_max_alloc(5) 1.          
    at(1, 5) at_tt_not_possible(1, 4) 1.           at_tt_not_possible(1, 5) 1.          
    at(1, 5) at_tt_not_possible(1, 5) 1.          
    at(2, 0) at_max_alloc(2) 1.           at_class_max_alloc(0) 1.          
    at(2, 0) at_tt_not_possible(2, 0) 1.           at_tt_not_possible(2, 0) 1.          
    at(2, 0) at_tt_not_possible(2, 1) 1.          
    at(2, 1) at_max_alloc(2) 1.           at_class_max_alloc(1) 1.          
    at(2, 1) at_tt_not_possible(2, 0) 1.           at_tt_not_possible(2, 1) 1.          
    at(2, 1) at_tt_not_possible(2, 1) 1.          
    at(2, 2) at_max_alloc(2) 1.           at_class_max_alloc(2) 1.          
    at(2, 2) at_tt_not_possible(2, 2) 1.           at_tt_not_possible(2, 2) 1.          
    at(2, 2) at_tt_not_possible(2, 3) 1.          
    at(2, 3) at_max_alloc(2) 1.           at_class_max_alloc(3) 1.          
    at(2, 3) at_tt_not_possible(2, 2) 1.           at_tt_not_possible(2, 3) 1.          
    at(2, 3) at_tt_not_possible(2, 3) 1.          
    at(2, 4) at_max_alloc(2) 1.           at_class_max_alloc(4) 1.          
    at(2, 4) at_tt_not_possible(2, 4) 1.           at_tt_not_possible(2, 4) 1.          
    at(2, 4) at_tt_not_possible(2, 5) 1.          
    at(2, 5) at_max_alloc(2) 1.           at_class_max_alloc(5) 1.          
    at(2, 5) at_tt_not_possible(2, 4) 1.           at_tt_not_possible(2, 5) 1.          
    at(2, 5) at_tt_not_possible(2, 5) 1.          
    at(3, 0) at_max_alloc(3) 1.           at_class_max_alloc(0) 1.          
    at(3, 0) at_tt_not_possible(3, 0) 1.           at_tt_not_possible(3, 0) 1.          
    at(3, 0) at_tt_not_possible(3, 1) 1.          
    at(3, 1) at_max_alloc(3) 1.           at_class_max_alloc(1) 1.          
    at(3, 1) at_tt_not_possible(3, 0) 1.           at_tt_not_possible(3, 1) 1.          
    at(3, 1) at_tt_not_possible(3, 1) 1.          
    at(3, 2) at_max_alloc(3) 1.           at_class_max_alloc(2) 1.          
    at(3, 2) at_tt_not_possible(3, 2) 1.           at_tt_not_possible(3, 2) 1.          
    at(3, 2) at_tt_not_possible(3, 3) 1.          
    at(3, 3) at_max_alloc(3) 1.           at_class_max_alloc(3) 1.          
    at(3, 3) at_tt_not_possible(3, 2) 1.           at_tt_not_possible(3, 3) 1.          
    at(3, 3) at_tt_not_possible(3, 3) 1.          
    at(3, 4) at_max_alloc(3) 1.           at_class_max_alloc(4) 1.          
    at(3, 4) at_tt_not_possible(3, 4) 1.           at_tt_not_possible(3, 4) 1.          
    at(3, 4) at_tt_not_possible(3, 5) 1.          
    at(3, 5) at_max_alloc(3) 1.           at_class_max_alloc(5) 1.          
    at(3, 5) at_tt_not_possible(3, 4) 1.           at_tt_not_possible(3, 5) 1.          
    at(3, 5) at_tt_not_possible(3, 5) 1.          
    at(4, 0) at_max_alloc(4) 1.           at_class_max_alloc(0) 1.          
    at(4, 0) at_tt_not_possible(4, 0) 1.           at_tt_not_possible(4, 0) 1.          
    at(4, 0) at_tt_not_possible(4, 1) 1.          
    at(4, 1) at_max_alloc(4) 1.           at_class_max_alloc(1) 1.          
    at(4, 1) at_tt_not_possible(4, 0) 1.           at_tt_not_possible(4, 1) 1.          
    at(4, 1) at_tt_not_possible(4, 1) 1.          
    at(4, 2) at_max_alloc(4) 1.           at_class_max_alloc(2) 1.          
    at(4, 2) at_tt_not_possible(4, 2) 1.           at_tt_not_possible(4, 2) 1.          
    at(4, 2) at_tt_not_possible(4, 3) 1.          
    at(4, 3) at_max_alloc(4) 1.           at_class_max_alloc(3) 1.          
    at(4, 3) at_tt_not_possible(4, 2) 1.           at_tt_not_possible(4, 3) 1.          
    at(4, 3) at_tt_not_possible(4, 3) 1.          
    at(4, 4) at_max_alloc(4) 1.           at_class_max_alloc(4) 1.          
    at(4, 4) at_tt_not_possible(4, 4) 1.           at_tt_not_possible(4, 4) 1.          
    at(4, 4) at_tt_not_possible(4, 5) 1.          
    at(4, 5) at_max_alloc(4) 1.           at_class_max_alloc(5) 1.          
    at(4, 5) at_tt_not_possible(4, 4) 1.           at_tt_not_possible(4, 5) 1.          
    at(4, 5) at_tt_not_possible(4, 5) 1.          
    at(5, 0) at_max_alloc(5) 1.           at_class_max_alloc(0) 1.          
    at(5, 0) at_tt_not_possible(5, 0) 1.           at_tt_not_possible(5, 0) 1.          
    at(5, 0) at_tt_not_possible(5, 1) 1.          
    at(5, 1) at_max_alloc(5) 1.           at_class_max_alloc(1) 1.          
    at(5, 1) at_tt_not_possible(5, 0) 1.           at_tt_not_possible(5, 1) 1.          
    at(5, 1) at_tt_not_possible(5, 1) 1.          
    at(5, 2) at_max_alloc(5) 1.           at_class_max_alloc(2) 1.          
    at(5, 2) at_tt_not_possible(5, 2) 1.           at_tt_not_possible(5, 2) 1.          
    at(5, 2) at_tt_not_possible(5, 3) 1.          
    at(5, 3) at_max_alloc(5) 1.           at_class_max_alloc(3) 1.          
    at(5, 3) at_tt_not_possible(5, 2) 1.           at_tt_not_possible(5, 3) 1.          
    at(5, 3) at_tt_not_possible(5, 3) 1.          
    at(5, 4) at_max_alloc(5) 1.           at_class_max_alloc(4) 1.          
    at(5, 4) at_tt_not_possible(5, 4) 1.           at_tt_not_possible(5, 4) 1.          
    at(5, 4) at_tt_not_possible(5, 5) 1.          
    at(5, 5) at_max_alloc(5) 1.           at_class_max_alloc(5) 1.          
    at(5, 5) at_tt_not_possible(5, 4) 1.           at_tt_not_possible(5, 5) 1.          
    at(5, 5) at_tt_not_possible(5, 5) 1.          
RHS
    RHS tt_max_alloc(0) 2.           tt_max_alloc(1) 2.          
    RHS at_max_alloc(2) 1.           tt_max_alloc(2) 1.          
    RHS at_max_alloc(3) 1.           tt_max_alloc(3) 1.          
    RHS at_max_alloc(4) 2.           at_max_alloc(5) 2.          
    RHS at_class_max_alloc(0) 1.           tt_class_max_alloc(0) 1.          
    RHS at_class_max_alloc(1) 1.           tt_class_max_alloc(1) 1.          
    RHS at_class_max_alloc(2) 1.           tt_class_max_alloc(2) 1.          
    RHS at_class_max_alloc(3) 1.           tt_class_max_alloc(3) 1.          
    RHS at_class_max_alloc(4) 1.           tt_class_max_alloc(4) 1.          
    RHS at_class_max_alloc(5) 1.           tt_class_max_alloc(5) 1.          
    RHS at_tt_not_possible(0, 0) 1.           at_tt_not_possible(0, 0) 1.          
    RHS at_tt_not_possible(0, 1) 1.           at_tt_not_possible(0, 1) 1.          
    RHS at_tt_not_possible(0, 2) 1.           at_tt_not_possible(0, 2) 1.          
    RHS at_tt_not_possible(0, 3) 1.           at_tt_not_possible(0, 3) 1.          
    RHS at_tt_not_possible(0, 4) 1.           at_tt_not_possible(0, 4) 1.          
    RHS at_tt_not_possible(0, 5) 1.           at_tt_not_possible(0, 5) 1.          
    RHS at_tt_not_possible(1, 0) 1.           at_tt_not_possible(1, 0) 1.          
    RHS at_tt_not_possible(1, 1) 1.           at_tt_not_possible(1, 1) 1.          
    RHS at_tt_not_possible(1, 2) 1.           at_tt_not_possible(1, 2) 1.          
    RHS at_tt_not_possible(1, 3) 1.           at_tt_not_possible(1, 3) 1.          
    RHS at_tt_not_possible(1, 4) 1.           at_tt_not_possible(1, 4) 1.          
    RHS at_tt_not_possible(1, 5) 1.           at_tt_not_possible(1, 5) 1.          
    RHS at_tt_not_possible(2, 0) 1.           at_tt_not_possible(2, 0) 1.          
    RHS at_tt_not_possible(2, 1) 1.           at_tt_not_possible(2, 1) 1.          
    RHS at_tt_not_possible(2, 2) 1.           at_tt_not_possible(2, 2) 1.          
    RHS at_tt_not_possible(2, 3) 1.           at_tt_not_possible(2, 3) 1.          
    RHS at_tt_not_possible(2, 4) 1.           at_tt_not_possible(2, 4) 1.          
    RHS at_tt_not_possible(2, 5) 1.           at_tt_not_possible(2, 5) 1.          
    RHS at_tt_not_possible(3, 0) 1.           at_tt_not_possible(3, 0) 1.          
    RHS at_tt_not_possible(3, 1) 1.           at_tt_not_possible(3, 1) 1.          
    RHS at_tt_not_possible(3, 2) 1.           at_tt_not_possible(3, 2) 1.          
    RHS at_tt_not_possible(3, 3) 1.           at_tt_not_possible(3, 3) 1.          
    RHS at_tt_not_possible(3, 4) 1.           at_tt_not_possible(3, 4) 1.          
    RHS at_tt_not_possible(3, 5) 1.           at_tt_not_possible(3, 5) 1.          
    RHS at_tt_not_possible(4, 0) 1.           at_tt_not_possible(4, 0) 1.          
    RHS at_tt_not_possible(4, 1) 1.           at_tt_not_possible(4, 1) 1.          
    RHS at_tt_not_possible(4, 2) 1.           at_tt_not_possible(4, 2) 1.          
    RHS at_tt_not_possible(4, 3) 1.           at_tt_not_possible(4, 3) 1.          
    RHS at_tt_not_possible(4, 4) 1.           at_tt_not_possible(4, 4) 1.          
    RHS at_tt_not_possible(4, 5) 1.           at_tt_not_possible(4, 5) 1.          
    RHS at_tt_not_possible(5, 0) 1.           at_tt_not_possible(5, 0) 1.          
    RHS at_tt_not_possible(5, 1) 1.           at_tt_not_possible(5, 1) 1.          
    RHS at_tt_not_possible(5, 2) 1.           at_tt_not_possible(5, 2) 1.          
    RHS at_tt_not_possible(5, 3) 1.           at_tt_not_possible(5, 3) 1.          
    RHS at_tt_not_possible(5, 4) 1.           at_tt_not_possible(5, 4) 1.          
    RHS at_tt_not_possible(5, 5) 1.           at_tt_not_possible(5, 5) 1.          
BOUNDS
 BV BOUND t(0, 0) 1.          
 BV BOUND t(0, 1) 1.          
 BV BOUND t(0, 2) 1.          
 BV BOUND t(0, 3) 1.          
 BV BOUND t(0, 4) 1.          
 BV BOUND t(0, 5) 1.          
 BV BOUND t(1, 0) 1.          
 BV BOUND t(1, 1) 1.          
 BV BOUND t(1, 2) 1.          
 BV BOUND t(1, 3) 1.          
 BV BOUND t(1, 4) 1.          
 BV BOUND t(1, 5) 1.          
 BV BOUND t(2, 0) 1.          
 BV BOUND t(2, 1) 1.          
 BV BOUND t(2, 2) 1.          
 BV BOUND t(2, 3) 1.          
 BV BOUND t(2, 4) 1.          
 BV BOUND t(2, 5) 1.          
 BV BOUND t(3, 0) 1.          
 BV BOUND t(3, 1) 1.          
 BV BOUND t(3, 2) 1.          
 BV BOUND t(3, 3) 1.          
 BV BOUND t(3, 4) 1.          
 BV BOUND t(3, 5) 1.          
 BV BOUND t(4, 0) 1.          
 BV BOUND t(4, 1) 1.          
 BV BOUND t(4, 2) 1.          
 BV BOUND t(4, 3) 1.          
 BV BOUND t(4, 4) 1.          
 BV BOUND t(4, 5) 1.          
 BV BOUND t(5, 0) 1.          
 BV BOUND t(5, 1) 1.          
 BV BOUND t(5, 2) 1.          
 BV BOUND t(5, 3) 1.          
 BV BOUND t(5, 4) 1.          
 BV BOUND t(5, 5) 1.          
 BV BOUND at(0, 0) 1.          
 BV BOUND at(0, 1) 1.          
 BV BOUND at(0, 2) 1.          
 BV BOUND at(0, 3) 1.          
 BV BOUND at(0, 4) 1.          
 BV BOUND at(0, 5) 1.          
 BV BOUND at(1, 0) 1.          
 BV BOUND at(1, 1) 1.          
 BV BOUND at(1, 2) 1.          
 BV BOUND at(1, 3) 1.          
 BV BOUND at(1, 4) 1.          
 BV BOUND at(1, 5) 1.          
 BV BOUND at(2, 0) 1.          
 BV BOUND at(2, 1) 1.          
 BV BOUND at(2, 2) 1.          
 BV BOUND at(2, 3) 1.          
 BV BOUND at(2, 4) 1.          
 BV BOUND at(2, 5) 1.          
 BV BOUND at(3, 0) 1.          
 BV BOUND at(3, 1) 1.          
 BV BOUND at(3, 2) 1.          
 BV BOUND at(3, 3) 1.          
 BV BOUND at(3, 4) 1.          
 BV BOUND at(3, 5) 1.          
 BV BOUND at(4, 0) 1.          
 BV BOUND at(4, 1) 1.          
 BV BOUND at(4, 2) 1.          
 BV BOUND at(4, 3) 1.          
 BV BOUND at(4, 4) 1.          
 BV BOUND at(4, 5) 1.          
 BV BOUND at(5, 0) 1.          
 BV BOUND at(5, 1) 1.          
 BV BOUND at(5, 2) 1.          
 BV BOUND at(5, 3) 1.          
 BV BOUND at(5, 4) 1.          
 BV BOUND at(5, 5) 1.          
ENDATA
